c read Graph
c width = 158
c time = 101 ms
c width = 13
c time = 178 ms
c width = 12
c time = 232 ms
c width = 11
c time = 287 ms
c width = 10
c time = 1567 ms
c width = 10
c time = 5385 ms
s td 153 11 171
b 1 1 2 20
b 2 2 3 20 21
b 3 17 18 37 38
b 4 3 20 21 39
b 5 17 37 38 57
b 6 115 134 135 154
b 7 133 151 152 170
b 8 115 135 154 155
b 9 133 151 169 170
b 10 3 4 5 23
b 11 3 5 22 23 40 58
b 12 5 22 23 40 42 58 60
b 13 5 23 40 42 58 60 78
b 14 5 23 42 58 60 78 96
b 15 5 23 25 42 43 60 78 96
b 16 5 25 42 43 60 62 78 80 96
b 17 5 25 43 60 62 78 80 96 98
b 18 60 78 79 80 98
b 19 5 25 43 62 78 80 96 98 118 138 158
b 20 5 25 43 62 80 98 100 118 138 158
b 21 80 98 99 100 118
b 22 5 25 43 62 80 100 118 120 138 158
b 23 100 118 119 120 138
b 24 5 25 43 62 80 100 120 138 140 158
b 25 5 25 43 62 80 82 100 120 140 158
b 26 62 80 81 82 100
b 27 5 25 43 62 63 82 100 120 140 158
b 28 5 25 43 45 63 82 100 120 140 158
b 29 5 25 45 63 82 100 102 120 140 158
b 30 82 100 101 102 120
b 31 5 25 45 63 82 102 120 122 140 158
b 32 102 120 121 122 140
b 33 5 25 45 63 82 83 102 122 140 158
b 34 5 25 45 63 65 83 102 122 140 158
b 35 45 63 64 65 83
b 36 5 25 45 65 83 102 103 122 140 158
b 37 5 25 45 65 83 85 103 122 140 158
b 38 65 83 84 85 103
b 39 5 25 45 65 85 103 122 140 142 158 162
b 40 5 25 45 65 85 103 122 123 142 143 162
b 41 5 25 45 65 85 103 105 123 143 162
b 42 5 9 25 27 45 65 85 105 123 143 162
b 43 9 27 45 47 65 85 105 123 143 162
b 44 27 45 46 47 65
b 45 9 27 29 47 65 85 105 123 143 162
b 46 9 27 28 29 47
b 47 9 29 47 65 67 85 105 123 143 162
b 48 9 29 47 49 67 85 105 123 143 162
b 49 9 29 49 67 85 87 105 123 143 162
b 50 9 29 49 67 69 87 105 123 143 162
b 51 49 67 68 69 87
b 52 9 29 49 69 87 105 123 125 143 162
b 53 105 123 124 125 143
b 54 9 29 49 69 87 105 107 125 143 162
b 55 87 105 106 107 125
b 56 9 13 29 31 49 69 87 107 125 143 162
b 57 13 31 49 51 69 87 107 125 143 162
b 58 31 49 50 51 69
b 59 13 31 33 51 69 87 107 125 143 162
b 60 13 31 32 33 51
b 61 13 33 51 69 87 107 125 126 143 144 162
b 62 13 33 51 69 87 107 126 144 146 162 166
b 63 126 144 146 162 164 166
b 64 126 144 145 146 164
b 65 146 164 165 166
b 66 144 162 163 164
b 67 13 33 51 69 87 89 107 126 146 166
b 68 13 33 51 69 71 89 107 126 146 166
b 69 13 33 51 71 89 107 108 126 146 166
b 70 13 33 51 71 89 90 108 126 146 166
b 71 13 33 51 71 90 108 126 128 146 166
b 72 108 126 127 128 146
b 73 13 33 51 71 90 108 110 128 146 166
b 74 90 108 109 110 128
b 75 13 33 51 53 71 90 110 128 146 166
b 76 33 51 52 53 71
b 77 13 33 53 71 72 90 110 128 146 166
b 78 51 69 70 71 89
b 79 69 87 88 89 107
b 80 9 11 13 29 31 49
b 81 9 10 11 29
b 82 11 29 30 31 49
b 83 11 12 13 31
b 84 67 85 86 87 105
b 85 29 47 48 49 67
b 86 47 65 66 67 85
b 87 5 7 9 25 27 45
b 88 7 25 26 27 45
b 89 7 8 9 27
b 90 5 6 7 25
b 91 85 103 104 105 123
b 92 122 140 142 158 160 162
b 93 142 160 161 162
b 94 140 158 159 160
b 95 122 140 141 142 160
b 96 25 43 44 45 63
b 97 120 138 139 140 158
b 98 78 96 98 118 138 156 158
b 99 138 156 157 158
b 100 78 96 98 118 136 138 156
b 101 118 136 137 138 156
b 102 78 96 98 116 118 136 156
b 103 96 116 136 155 156
b 104 96 115 116 136 155
b 105 115 116 135 136 155
b 106 78 96 97 98 116
b 107 98 116 117 118 136
b 108 42 60 61 62 80
b 109 5 23 24 25 43
b 110 58 77 78 96
b 111 40 58 59 60 78
b 112 22 40 41 42 60
b 113 3 22 39 40 58
b 114 3 21 22 39 40
b 115 13 33 53 72 90 92 110 128 146 166
b 116 13 33 53 72 92 110 128 146 148 166
b 117 13 33 53 72 76 92 94 112 130 148 166
b 118 13 33 53 72 92 110 112 130 148 166
b 119 13 33 53 72 92 110 128 130 148 166
b 120 72 90 91 92 110
b 121 13 33 53 72 74 76 92 94 112
b 122 74 92 93 94 112
b 123 13 33 53 54 72 74 76 92 94
b 124 13 17 33 36 53 54 74 76 94
b 125 13 17 33 35 36 53 54
b 126 13 15 17 33 35 53
b 127 13 14 15 33
b 128 15 16 17 35
b 129 15 33 34 35 53
b 130 17 36 54 56 74 76 94
b 131 17 36 56 57 76
b 132 17 36 37 56 57
b 133 36 54 55 56 74
b 134 56 74 75 76 94
b 135 54 72 73 74 92
b 136 128 146 147 148 166
b 137 92 110 111 112 130
b 138 110 128 129 130 148
b 139 76 94 112 130 148 166 168
b 140 148 166 167 168
b 141 76 94 112 114 130 148 168
b 142 76 94 95 114
b 143 94 112 114 130 148 150 168
b 144 130 148 149 150 168
b 145 94 112 114 130 132 150 168
b 146 94 112 113 114 132
b 147 112 130 131 132 150
b 148 114 132 150 168 169
b 149 114 132 133 150 169
b 150 132 133 150 151 169
b 151 152 170 171
b 152 134 153 154
b 153 18 19 38
1 2
2 4
3 153
3 5
4 114
5 132
6 152
6 8
7 151
7 9
8 105
9 150
10 11
11 113
11 12
12 112
12 13
13 111
13 14
14 110
14 15
15 109
15 16
16 108
16 17
17 19
17 18
19 98
19 20
20 22
20 21
22 24
22 23
24 97
24 25
25 27
25 26
27 28
28 96
28 29
29 31
29 30
31 33
31 32
33 34
34 36
34 35
36 37
37 39
37 38
39 40
39 92
40 41
41 91
41 42
42 87
42 43
43 45
43 44
45 47
45 46
47 86
47 48
48 85
48 49
49 84
49 50
50 52
50 51
52 54
52 53
54 56
54 55
56 80
56 57
57 59
57 58
59 61
59 60
61 62
62 67
62 63
63 66
63 65
63 64
67 79
67 68
68 78
68 69
69 70
70 71
71 72
71 73
73 75
73 74
75 77
75 76
77 115
80 83
80 82
80 81
87 90
87 89
87 88
92 93
92 94
92 95
98 99
98 100
100 101
100 102
102 103
102 106
102 107
103 104
104 105
113 114
115 120
115 116
116 136
116 119
117 121
117 139
117 118
118 137
118 119
119 138
121 123
121 122
123 135
123 124
124 125
124 130
125 126
126 127
126 128
126 129
130 131
130 134
130 133
131 132
139 140
139 141
141 142
141 143
143 144
143 145
145 148
145 146
145 147
148 149
149 150
